20	5
0	2	1	2
1	2	19	14
2	1	3
3	1	17
4	2	6	12
5	1	6
6	0
7	1	4
8	1	11
9	0
10	0
11	2	6	16
12	1	20
13	1	7
14	2	8	9
15	1	5
16	1	13
17	1	19
18	1	10
19	1	9
20	1	21
21	0
0	0	0	0	0	0	0
1	9	0	0	0	5	5
2	9	5	1	2	2	4
3	4	0	0	0	1	0
4	1	2	0	0	0	5
5	7	0	0	1	0	5
6	7	5	0	0	0	5
7	7	5	0	0	0	0
8	1	0	0	0	5	4
9	7	0	0	1	4	2
10	2	1	0	0	0	1
11	9	0	0	2	1	0
12	5	0	0	4	5	0
13	9	0	0	2	5	2
14	10	5	3	0	4	2
15	2	2	5	4	5	2
16	3	4	0	4	0	4
17	10	0	4	1	1	4
18	10	1	0	0	2	0
19	9	0	0	0	0	2
20	8	0	0	0	2	4
21	0	0	0	0	0	0
6	5	5	7	7
